911660
21 1 6578
1 6 25297
6 9 47658
9 8 54349
8 15 26227
15 17 45489
17 14 42391
14 3 30026
3 16 71701
16 27 59028
27 40 17541
40 19 13572
19 4 26533
4 24 52566
24 22 45980
22 13 39393
13 28 6411
28 31 12751
31 25 7859
25 39 4093
39 37 6534
37 30 941
30 20 17244
20 32 24202
32 5 3290
5 26 32088
26 33 15458
33 12 3967
12 34 39715
34 23 31609
23 38 7449
38 29 745
29 36 16895
36 7 11794
7 18 20722
18 2 16361
2 35 10541
35 11 5412
11 10 5506
10 21 5744
